W=6;
H=5;

MAX_TIME=49;
MAX_TRACKS=14;

TARGET=(3,6);

TRAINS=[(3,2,RIGHT),(2,2,RIGHT),(4,2,RIGHT)];

INIT_POS=[
(2,2,STRAIGHT_RL),
(2,4,ESWITCH_T_D_L),
(3,2,STRAIGHT_RL),
(3,4,ESWITCH_T_D_L),
(3,6,STRAIGHT_RL),
(4,2,STRAIGHT_RL),
(4,4,ESWITCH_T_D_L),
];
TUNNEL_PAIRS=[];

GATES=[];
ACTIVATIONS=[];

DSWITCHES=[];
STATIONS=[];
